
Welcome to IBM(R) ILOG(R) CPLEX(R) Interactive Optimizer 22.1.1.0
  with Simplex, Mixed Integer & Barrier Optimizers
5725-A06 5725-A29 5724-Y48 5724-Y49 5724-Y54 5724-Y55 5655-Y21
Copyright IBM Corp. 1988, 2022.  All Rights Reserved.

Type 'help' for a list of available commands.
Type 'help' followed by a command name for more
information on commands.

CPLEX> Selected objective sense:  MINIMIZE
Selected objective  name:  00000000
Selected RHS        name:  RHS1
Selected bound      name:  BOUND
Problem 'ee.mps' read.
Read time = 0.03 sec. (3.14 ticks)
CPLEX> New value for time limit in seconds: 7200
CPLEX> New value for parallel optimization mode: -1
CPLEX> New value for default parallel thread count: 40
CPLEX> New value for mixed integer optimality gap tolerance: 1e-13
CPLEX> Version identifier: 22.1.1.0 | 2022-11-28 | 9160aff4d
CPXPARAM_Threads                                 40
CPXPARAM_Parallel                                -1
CPXPARAM_TimeLimit                               7200
CPXPARAM_MIP_Tolerances_MIPGap                   1e-13
Found incumbent of value 0.000000 after 0.00 sec. (0.31 ticks)
Tried aggregator 4 times.
MIP Presolve eliminated 256 rows and 3267 columns.
MIP Presolve modified 5814 coefficients.
Aggregator did 777 substitutions.
Reduced MIP has 3483 rows, 7142 columns, and 26419 nonzeros.
Reduced MIP has 7142 binaries, 0 generals, 0 SOSs, and 0 indicators.
Presolve time = 0.09 sec. (85.16 ticks)
Probing fixed 62 vars, tightened 0 bounds.
Probing time = 0.06 sec. (29.11 ticks)
Tried aggregator 2 times.
Detecting symmetries...
MIP Presolve eliminated 35 rows and 91 columns.
Aggregator did 2 substitutions.
Reduced MIP has 3446 rows, 7043 columns, and 26072 nonzeros.
Reduced MIP has 7043 binaries, 0 generals, 0 SOSs, and 0 indicators.
Presolve time = 0.04 sec. (45.90 ticks)
Probing time = 0.03 sec. (6.66 ticks)
Clique table members: 16941.
MIP emphasis: balance optimality and feasibility.
MIP search method: dynamic search.
Parallel mode: opportunistic, using up to 40 threads.
Root relaxation solution time = 0.06 sec. (60.13 ticks)

        Nodes                                         Cuts/
   Node  Left     Objective  IInf  Best Integer    Best Bound    ItCnt     Gap

*     0+    0                            0.0000  -1.31000e+13              --- 
*     0+    0                      -3.30000e+12  -1.31000e+13           296.97%
*     0+    0                      -4.40000e+12  -1.31000e+13           197.73%
*     0+    0                      -5.50000e+12  -1.31000e+13           138.18%
      0     0  -1.30900e+13    42  -5.50000e+12  -1.30900e+13     1590  138.00%
*     0+    0                      -1.30900e+13  -1.30900e+13             0.00%
*     0+    0                      -1.30900e+13  -1.30900e+13             0.00%
      0     0  -1.30900e+13   110  -1.30900e+13      Cuts: 52     1955    0.00%
      0     0  -1.30900e+13   118  -1.30900e+13      Cuts: 47     2212    0.00%
*     0+    0                      -1.30900e+13  -1.30900e+13             0.00%
*     0+    0                      -1.30900e+13  -1.30900e+13             0.00%
*     0+    0                      -1.30900e+13  -1.30900e+13             0.00%
*     0+    0                      -1.30900e+13  -1.30900e+13             0.00%
      0     0  -1.00000e+75     0  -1.30900e+13  -1.30900e+13     2212    0.00%
Detecting symmetries...

Repeating presolve.
Tried aggregator 2 times.
MIP Presolve eliminated 1472 rows and 3231 columns.
MIP Presolve modified 1028 coefficients.
Aggregator did 381 substitutions.
Reduced MIP has 1593 rows, 3385 columns, and 12149 nonzeros.
Reduced MIP has 3385 binaries, 0 generals, 0 SOSs, and 0 indicators.
Presolve time = 0.05 sec. (50.99 ticks)
Probing fixed 2 vars, tightened 0 bounds.
Probing time = 0.03 sec. (9.94 ticks)
Tried aggregator 1 time.
Detecting symmetries...
MIP Presolve eliminated 1 rows and 2 columns.
Reduced MIP has 1592 rows, 3383 columns, and 12140 nonzeros.
Reduced MIP has 3383 binaries, 0 generals, 0 SOSs, and 0 indicators.
Presolve time = 0.01 sec. (8.69 ticks)
Represolve time = 0.12 sec. (85.78 ticks)
Probing time = 0.02 sec. (3.58 ticks)
Clique table members: 8167.
MIP emphasis: balance optimality and feasibility.
MIP search method: dynamic search.
Parallel mode: opportunistic, using up to 40 threads.
Root relaxation solution time = 0.06 sec. (39.17 ticks)

        Nodes                                         Cuts/
   Node  Left     Objective  IInf  Best Integer    Best Bound    ItCnt     Gap

*     0+    0                      -1.30900e+13  -1.30900e+13             0.00%
      0     0  -1.30900e+13    43  -1.30900e+13  -1.30900e+13     3467    0.00%
      0     0  -1.30900e+13    88  -1.30900e+13      Cuts: 74     3626    0.00%
      0     0  -1.30900e+13   109  -1.30900e+13      Cuts: 25     3907    0.00%
      0     2  -1.30900e+13    94  -1.30900e+13  -1.30900e+13     3907    0.00%
Elapsed time = 1.98 sec. (1283.14 ticks, tree = 0.02 MB, solutions = 10)
    400    10  -1.30900e+13   119  -1.30900e+13  -1.30900e+13    23970    0.00%

GUB cover cuts applied:  2
Clique cuts applied:  16
Cover cuts applied:  266
Flow cuts applied:  4
Mixed integer rounding cuts applied:  3
Zero-half cuts applied:  10
Lift and project cuts applied:  4
Gomory fractional cuts applied:  17

Root node processing (before b&c):
  Real time             =    1.53 sec. (1282.62 ticks)
Parallel b&c, 40 threads:
  Real time             =    1.31 sec. (270.74 ticks)
  Sync time (average)   =    0.80 sec.
  Wait time (average)   =    0.00 sec.
                          ------------
Total (root+branch&cut) =    2.83 sec. (1553.36 ticks)

Solution pool: 10 solutions saved.

MIP - Integer optimal solution:  Objective = -1.3089999890e+13
Solution time =    2.89 sec.  Iterations = 28452  Nodes = 405
Deterministic time = 1553.40 ticks  (536.81 ticks/sec)

CPLEX> Solution 'p11' written to file 'ee.sol'.
CPLEX> 